# Node Net
8066   1
8032   1
3330   1
3870   2
 70   2
8070   2
2970   3
  7   3
7560   3
 14   4
 22   4
3420   4
2611   5
4951   5
5131   5
7471   6
7111   6
 38   6
8079   7
3690   7
 29   7
 77   8
8092   8
 33   9
 24   9
3060  10
1441  10
2250  11
1890  11
1351  12
451  12
